c A SAT instance generated from a 3-CNF formula that had 36 clauses and 12 variables
p cnf 12 36
2 -3 10 0
-3 6 9 0
-8 -6 -12 0
3 4 -11 0
-6 -11 1 0
1 -10 5 0
-9 -3 -2 0
7 10 2 0
12 8 -7 0
-4 6 2 0
10 -7 -8 0
9 -10 8 0
1 -7 -11 0
9 -12 -6 0
4 -6 5 0
-8 -2 -9 0
-12 -5 -10 0
-12 4 8 0
6 5 -4 0
-8 -7 4 0
-10 -1 6 0
1 8 -2 0
-7 11 -6 0
-12 -2 -8 0
7 9 -11 0
-5 2 6 0
-11 -8 -10 0
-5 2 3 0
7 -9 -11 0
-7 -9 4 0
4 11 5 0
10 -11 -8 0
-2 6 -9 0
-2 11 7 0
-4 2 9 0
7 2 8 0
